solution status: optimal solution found
objective value:                                    0
$_224_y                                             5 	(obj:0)
$_224_z                                            18 	(obj:0)
$_237_y                                             2 	(obj:0)
$_237_z                                            22 	(obj:0)
$_265_y                                             2 	(obj:0)
$_265_z                                            18 	(obj:0)
$_25__4_y                                          14 	(obj:0)
$_25__4_z                                          24 	(obj:0)
$_18__4_y                                          23 	(obj:0)
$_18__4_z                                          18 	(obj:0)
$_22__4_y                                          24 	(obj:0)
$_22__4_z                                           9 	(obj:0)
$_19__4_y                                          23 	(obj:0)
$_19__4_z                                          20 	(obj:0)
$_24__4_y                                          18 	(obj:0)
$_24__4_z                                          24 	(obj:0)
$_23__4_y                                          21 	(obj:0)
$_23__4_z                                          23 	(obj:0)
$_155_y                                             8 	(obj:0)
$_155_z                                            22 	(obj:0)
$_101_y                                            12 	(obj:0)
$_101_z                                            24 	(obj:0)
$_21__4_y                                          16 	(obj:0)
$_21__4_z                                          24 	(obj:0)
$_183_y                                             8 	(obj:0)
$_183_z                                            20 	(obj:0)
$_277_y                                            -1 	(obj:0)
$_277_z                                            21 	(obj:0)
$_20__4_y                                           1 	(obj:0)
$_20__4_z                                           3 	(obj:0)
$_100_y                                            -2 	(obj:0)
$_100_z                                            19 	(obj:0)
$_196_y                                             5 	(obj:0)
$_196_z                                            22 	(obj:0)
